%chk=h2o_gaussian.chk
#p opt freq hf/6-311g(d,p) 

Title Card Required

0 1
O
H 1 rOH
H 1 rOH 2 aHOH

rOH=0.96
aHOH=104.5
