%chk=h2o_gaussian.chk
# opt freq hf/3-21g geom=connectivity

Title Card Required

0 1
 O                 -0.71428573    0.65656565    0.00000000
 H                  0.24571427    0.65656565    0.00000000
 H                 -1.03474031    1.56150148    0.00000000

 1 2 1.0 3 1.0
 2
 3

