%chk=h2o_gaussian.chk
#p opt freq=(HPModes,Analytic) hf/6-311g(d,p) geom=connectivity 

Title Card Required

0 1
H    0.7493682    0.0000000    0.4424329
O    0.0000000    0.0000000   -0.1653507
H   -0.7493682    0.0000000    0.4424329
 

