%chk=methan.chk
# opt freq hf/6-311g(d,p) geom=connectivity

Title Card Required

0 1
 C                 -0.98845600    1.46464644    0.00000000
 H                 -0.63180158    0.45583644    0.00000000
 H                 -0.63178316    1.96904463    0.87365150
 H                 -0.63178316    1.96904463   -0.87365150
 H                 -2.05845600    1.46465963    0.00000000

 1 2 1.0 3 1.0 4 1.0 5 1.0
 2
 3
 4
 5

