%chk=methan.chk
#p opt freq hf/6-311g(d,p) geom=connectivity

Title Card Required

0 1
 C                 -0.67099568    0.68542568    0.00000000
 H                 -0.31434126   -0.32338433    0.00000000
 H                 -0.31432284    1.18982387    0.87365150
 H                 -0.31432284    1.18982387   -0.87365150
 H                 -1.74099568    0.68543886    0.00000000

 1 2 1.0 3 1.0 4 1.0 5 1.0
 2
 3
 4
 5

