%chk=carbonic_acid_input.chk
#p opt freq hf/6-311g(d,p) geom=connectivity

Title Card Required

0 1
 C                 -0.59061661    0.39805427   -0.96274300
 O                 -0.37842674    1.62995600   -0.81795301
 O                  0.38720879   -0.55554087   -0.53917033
 H                  1.14346765   -0.09555650   -0.16756986
 O                 -1.81376502   -0.04977599   -1.55287521
 H                 -1.77041718    0.06347685   -2.50518544
 C                  3.23235642    2.92225144    0.39560663
 O                  2.92867632    1.40943118   -0.00238272
 O                  1.90951341    2.98778686    0.93476474
 H                  1.16670697    2.96080640    0.44651568
 O                  4.14826003    3.54019813    1.30344057
 H                  4.65118161    4.21495920    0.84152350

 1 2 2.0 3 1.0 5 1.0
 2
 3 4 1.0
 4
 5 6 1.0
 6
 7 8 2.0 9 1.0 11 1.0
 8
 9 10 1.0
 10
 11 12 1.0
 12

