%chk=ethanol.chk
#p opt freq hf/6-311g geom=connectivity

Title Card Required

0 2
 C                 -1.19047621   -0.00721501    0.00000000
 H                 -0.83382178   -1.01602501    0.00000000
 H                 -0.83380337    0.49718318   -0.87365150
 C                 -0.67713399    0.71874127    1.25740497
 H                 -1.03219034    1.72811436    1.25642745
 H                 -1.03540310    0.21547283    2.13105486
 H                  0.39286420    0.71703458    1.25838372
 O                 -2.62047621   -0.00719739    0.00000000

 1 2 1.0 3 1.0 4 1.0 8 1.0
 2
 3
 4 5 1.0 6 1.0 7 1.0
 5
 6
 7
 8

